100 99267

 832 975
770 24
621 271
768 95
993 142
794 694
220 718
595 902
107 974
581 81
609 274
724 276
286 883
749 958
8 465
806 208
189 296
81 39
108 948
321 288
579 124
686 876
346 969
863 283
328 878
555 180
699 97
302 191
200 74
893 447
419 785
39 497
732 561
307 484
4 849
633 722
848 116
77 535
468 98
179 328
645 909
823 407
741 313
276 702
152 694
164 148
290 342
378 495
621 948
638 23
752 105
310 675
930 579
979 802
913 801
389 558
857 593
658 941
764 659
183 222
821 855
306 15
72 891
219 633
719 78
173 322
653 807
272 241
726 18
468 768
269 454
20 443
578 928
995 277
815 424
503 476
147 27
429 514
165 865
890 464
310 807
518 982
14 824
132 363
854 383
755 751
439 525
743 382
740 184
674 194
795 462
263 56
643 230
943 489
225 28
258 832
234 583
336 722
409 960
828 184
